c randN150_K5_R0.2_L30_6.cnf
p cnf 150 30
-32 -123 8 107 95 0
-32 110 49 -98 -65 0
73 106 -76 -105 -98 0
68 103 -86 -80 -1 0
-31 39 45 -15 21 0
-64 5 10 123 -34 0
-122 120 -99 94 -97 0
-60 36 148 -139 150 0
-123 134 -26 74 89 0
128 -92 -55 -11 -74 0
96 -145 24 89 -70 0
-69 -146 87 91 29 0
132 45 116 -73 123 0
-125 68 69 146 91 0
70 -84 44 -13 119 0
-126 7 141 -142 -4 0
129 -137 -71 124 -65 0
41 44 143 -15 83 0
-31 137 -15 82 -135 0
-30 -125 105 29 126 0
99 43 -109 -137 -38 0
-84 -45 54 56 -131 0
98 -23 106 12 110 0
132 40 147 -8 59 0
-63 7 107 -21 85 0
-128 -120 -51 -13 -102 0
-4 -17 82 -77 -68 0
-26 -15 -13 -133 -34 0
105 42 22 61 -129 0
70 138 77 125 -130 0
